c preprocessed version of BN_124, 43 vertices, 638 edges
p td 43 638
1 0
16 0
18 0
21 0
22 0
24 0
19 0
1 2
1 8
1 9
1 10
1 12
1 20
1 4
7 1
11 1
14 1
16 1
18 1
21 1
23 1
22 1
24 1
19 1
2 3
4 2
11 2
14 2
16 2
18 2
21 2
23 2
22 2
24 2
4 3
11 3
14 3
16 3
18 3
21 3
23 3
24 3
4 5
4 6
4 8
4 9
4 10
7 4
11 4
14 4
16 4
18 4
21 4
23 4
22 4
24 4
19 4
5 6
7 5
11 5
14 5
16 5
21 5
23 5
19 5
7 6
11 6
14 6
21 6
19 6
7 8
7 9
7 10
7 12
7 13
7 20
7 17
11 7
14 7
16 7
18 7
21 7
23 7
19 7
9 8
11 8
14 8
18 8
19 8
9 10
11 9
14 9
16 9
18 9
21 9
19 9
11 10
14 10
21 10
19 10
11 12
11 13
11 15
11 22
11 24
11 19
11 14
11 21
11 16
11 18
11 23
12 13
12 15
14 12
16 12
18 12
23 12
19 12
14 13
16 13
23 13
19 13
14 15
14 17
14 22
14 24
14 19
14 21
14 16
14 18
14 23
16 15
18 15
16 17
16 20
16 19
16 22
16 24
16 18
16 21
16 23
18 17
21 17
23 17
19 17
18 19
18 22
18 24
18 21
18 23
19 20
21 19
23 19
22 19
24 19
21 22
21 24
21 23
23 22
22 24
23 24
25 22
25 24
25 0
25 19
25 14
25 16
25 5
25 6
25 8
25 9
25 40
25 12
25 20
25 39
25 41
25 29
25 32
25 26
25 28
25 33
25 18
25 1
25 11
25 7
25 27
25 30
25 31
25 34
25 35
25 36
25 4
25 37
25 21
25 23
25 38
25 42
26 22
26 24
26 19
26 14
26 2
26 16
26 9
26 28
26 40
26 12
26 33
26 15
26 20
26 17
26 29
26 32
26 18
26 39
26 41
26 1
26 11
26 7
26 27
26 30
26 31
26 34
26 35
26 36
26 4
26 37
26 21
26 23
26 38
26 42
27 0
27 1
27 4
27 5
27 6
27 8
27 9
27 10
27 12
27 13
27 15
27 38
27 7
27 28
27 37
27 39
27 40
27 41
27 29
27 11
27 14
27 30
27 31
27 16
27 32
27 33
27 42
27 18
27 34
27 35
27 36
27 21
27 23
27 22
27 24
27 19
28 1
28 4
28 5
28 8
28 9
28 10
28 7
28 37
28 38
28 17
28 40
28 29
28 39
28 41
28 11
28 14
28 30
28 31
28 16
28 32
28 33
28 42
28 18
28 34
28 35
28 36
28 21
28 23
28 22
28 24
28 19
29 0
29 1
29 2
29 3
29 4
29 5
29 6
29 9
29 10
29 7
29 37
29 38
29 17
29 20
29 39
29 40
29 41
29 11
29 14
29 30
29 31
29 16
29 32
29 33
29 42
29 18
29 34
29 35
29 36
29 21
29 23
29 22
29 24
29 19
30 11
30 14
30 19
30 7
30 1
30 33
30 18
30 34
30 4
30 39
30 40
30 22
30 41
30 12
30 24
30 9
30 2
30 3
30 5
30 10
30 13
30 15
30 17
30 31
30 16
30 32
30 42
30 35
30 36
30 37
30 21
30 23
30 38
31 11
31 14
31 19
31 22
31 24
31 0
31 2
31 32
31 5
31 6
31 8
31 9
31 1
31 12
31 13
31 15
31 20
31 4
31 21
31 35
31 38
31 7
31 16
31 33
31 42
31 18
31 34
31 36
31 37
31 23
31 39
31 40
31 41
32 11
32 14
32 16
32 19
32 22
32 24
32 2
32 3
32 5
32 20
32 1
32 35
32 4
32 21
32 38
32 7
32 33
32 42
32 18
32 34
32 36
32 37
32 23
32 39
32 40
32 41
33 11
33 14
33 16
33 19
33 7
33 22
33 24
33 2
33 3
33 8
33 9
33 40
33 12
33 13
33 15
33 17
33 18
33 39
33 41
33 1
33 34
33 35
33 36
33 4
33 37
33 21
33 23
33 38
33 42
34 42
34 11
34 14
34 16
34 18
34 19
34 7
34 1
34 4
34 39
34 40
34 22
34 41
34 24
34 9
34 0
34 2
34 3
34 8
34 10
34 17
34 35
34 36
34 37
34 21
34 23
34 38
35 42
35 11
35 14
35 16
35 18
35 19
35 22
35 24
35 2
35 9
35 10
35 1
35 12
35 15
35 20
35 4
35 21
35 38
35 7
35 36
35 37
35 23
35 39
35 40
35 41
36 42
36 11
36 14
36 16
36 18
36 19
36 7
36 1
36 4
36 22
36 24
36 2
36 21
36 10
36 38
36 5
36 9
36 40
36 20
36 12
36 15
36 17
36 37
36 23
36 39
36 41
37 42
37 1
37 2
37 3
37 4
37 8
37 9
37 10
37 7
37 12
37 13
37 15
37 38
37 39
37 40
37 41
37 11
37 14
37 16
37 18
37 21
37 23
37 22
37 24
37 19
38 42
38 1
38 4
38 5
38 6
38 8
38 9
38 7
38 12
38 15
38 17
38 39
38 40
38 41
38 11
38 14
38 16
38 18
38 21
38 23
38 22
38 19
39 42
39 1
39 7
39 12
39 13
39 15
39 40
39 41
39 11
39 14
39 16
39 18
39 21
39 23
39 19
40 42
40 1
40 7
40 12
40 13
40 15
40 20
40 41
40 11
40 14
40 16
40 18
40 23
40 19
41 42
41 1
41 7
41 20
41 14
41 16
41 18
41 23
41 19
42 0
42 1
42 2
42 3
42 4
42 5
42 6
42 9
42 10
42 7
42 12
42 13
42 15
42 11
42 14
42 16
42 19
42 21
42 23
42 22
42 24
42 18
